7
90
0.7
0.9
12
0 12 10 -1 -1 -1 12
12 0 8 12 -1 -1 -1
10 8 0 11 3 -1 9
-1 12 11 0 11 10 -1
-1 -1 3 11 0 6 7
-1 -1 -1 10 6 0 9
12 -1 9 -1 7 9 0

1	0.0      1	0.0
0  4  6  5  1  3  2    0.0
6  2  0  4  5  3  1    0.0
2  6  1  4  3  5  0    0.0
0  5  6  2  3  1  4    0.0
1  2  0  4  3  6  5    0.0
0  6  1  4  5  2  3    0.0
1  5  0  6  4  2  3    0.0
3  0  5  1  6  2  4    0.0
4  3  0  2  1  5  6    0.0
0  4  5  2  3  1  6    0.0
5  3  4  1  2  6  0    0.0
5  0  4  1  2  6  3    0.0



2	0.0      1	0.0
1  4  6  5  3  2  0    0.0
6  2  0  4  5  3  1    0.0
2  6  1  4  3  5  0    0.0
0  4  6  2  3  1  5    0.0
1  2  0  4  3  6  5    0.0
0  6  1  4  5  2  3    0.0
0  5  4  6  1  2  3    0.0
3  0  5  1  2  6  4    0.0
4  3  0  2  1  5  6    0.0
1  3  0  2  4  6  5    0.0
2  0  4  6  5  1  3    0.0
5  2  1  3  6  0  4    0.0



3	0.0      1	0.0
1  4  6  5  3  2  0    0.0
5  1  2  0  4  6  3    0.0
2  6  1  3  4  5  0    0.0
0  4  6  5  3  1  2    0.0
1  2  0  4  3  6  5    0.0
0  6  1  4  5  2  3    0.0
0  4  5  6  1  2  3    0.0
3  0  5  1  2  6  4    0.0
0  4  6  3  1  5  2    0.0
1  3  0  2  4  6  5    0.0
0  4  6  3  5  1  2    0.0
5  2  1  3  6  0  4    0.0



4	0.0      1	0.0
1  4  6  5  3  2  0    0.0
0  4  1  6  5  3  2    0.0
2  1  6  0  4  5  3    0.0
6  4  5  3  2  0  1    0.0
1  2  0  4  3  6  5    0.0
6  1  0  4  5  2  3    0.0
0  1  4  6  5  3  2    0.0
3  0  5  1  2  6  4    0.0
0  4  6  3  1  5  2    0.0
1  3  0  2  4  6  5    0.0
0  4  6  3  5  1  2    0.0
1  4  5  3  6  0  2    0.0



5	0.0      1	0.0
6  5  3  2  0  1  4    0.0
0  4  6  3  2  5  1    0.0
2  1  6  0  4  5  3    0.0
2  0  1  4  6  5  3    0.0
2  0  1  4  3  6  5    0.0
1  6  0  4  5  2  3    0.0
2  0  4  6  1  5  3    0.0
3  0  5  1  2  6  4    0.0
0  4  6  3  1  5  2    0.0
1  3  0  2  4  6  5    0.0
0  4  6  3  5  1  2    0.0
1  4  5  3  6  0  2    0.0



6	0.0      1	0.0
6  5  3  2  0  1  4    0.0
0  4  6  3  2  5  1    0.0
6  3  2  0  5  4  1    0.0
2  5  3  0  1  4  6    0.0
0  6  1  4  5  3  2    0.0
0  1  6  4  5  2  3    0.0
2  0  4  6  1  5  3    0.0
2  0  5  1  4  6  3    0.0
0  4  6  3  1  5  2    0.0
1  3  0  2  4  6  5    0.0
0  5  3  2  1  4  6    0.0
1  4  5  3  6  0  2    0.0



7	0.0      1	0.0
6  5  3  2  0  1  4    0.0
0  6  4  3  2  5  1    0.0
1  4  6  0  5  3  2    0.0
2  5  3  0  1  4  6    0.0
6  2  0  4  5  3  1    0.0
0  1  6  4  5  2  3    0.0
2  0  4  6  1  5  3    0.0
2  0  5  1  4  6  3    0.0
0  4  6  3  1  5  2    0.0
1  3  0  2  4  6  5    0.0
0  5  3  2  1  4  6    0.0
1  5  3  2  0  4  6    0.0



8	0.0      1	0.0
6  5  3  2  0  1  4    0.0
0  6  4  3  2  5  1    0.0
1  4  6  0  5  3  2    0.0
5  3  2  0  1  4  6    0.0
6  2  0  4  5  3  1    0.0
1  4  5  0  6  2  3    0.0
2  0  4  6  1  5  3    0.0
5  3  2  0  4  6  1    0.0
0  4  3  6  1  5  2    0.0
1  3  0  2  4  6  5    0.0
0  1  4  6  5  3  2    0.0
6  5  3  2  0  4  1    0.0



9	0.0      1	0.0
2  3  5  6  0  1  4    0.0
2  0  4  1  6  5  3    0.0
1  4  6  0  5  3  2    0.0
0  1  2  4  6  5  3    0.0
6  2  0  4  5  3  1    0.0
1  4  5  0  6  2  3    0.0
2  0  4  6  1  5  3    0.0
5  3  2  0  4  6  1    0.0
0  1  4  6  5  3  2    0.0
1  3  0  2  4  6  5    0.0
4  6  2  0  5  3  1    0.0
6  5  3  2  0  4  1    0.0



10	0.0      1	0.0
2  5  3  6  0  1  4    0.0
2  0  4  1  3  5  6    0.0
1  4  6  0  5  3  2    0.0
0  1  2  4  6  5  3    0.0
6  2  0  4  5  3  1    0.0
1  4  5  0  2  3  6    0.0
4  2  3  6  0  5  1    0.0
6  3  2  0  1  4  5    0.0
0  1  6  4  5  3  2    0.0
1  3  0  2  4  6  5    0.0
4  6  2  0  5  3  1    0.0
0  1  4  2  3  5  6    0.0



11	0.0      1	0.0
2  5  3  6  0  1  4    0.0
2  6  4  0  1  5  3    0.0
1  4  6  0  5  3  2    0.0
0  1  2  4  6  5  3    0.0
0  1  2  4  5  3  6    0.0
1  4  5  0  2  3  6    0.0
4  2  3  6  0  5  1    0.0
1  4  5  2  3  6  0    0.0
0  1  6  4  5  3  2    0.0
1  3  0  6  4  2  5    0.0
0  5  4  3  1  2  6    0.0
3  1  6  0  4  2  5    0.0



12	0.0      1	0.0
2  5  3  6  0  1  4    0.0
1  4  2  0  5  3  6    0.0
1  4  6  0  5  2  3    0.0
4  1  2  0  6  5  3    0.0
6  1  2  4  5  3  0    0.0
1  4  5  0  2  3  6    0.0
1  4  3  6  0  2  5    0.0
2  5  3  6  0  1  4    0.0
0  1  6  4  5  3  2    0.0
1  3  0  6  4  2  5    0.0
2  4  1  5  3  6  0    0.0
3  1  6  0  4  2  5    0.0



13	0.0      1	0.0
3  5  6  0  1  4  2    0.0
3  6  2  4  5  0  1    0.0
4  2  3  5  6  0  1    0.0
2  4  1  0  6  5  3    0.0
6  0  1  4  2  5  3    0.0
1  4  5  6  0  2  3    0.0
1  4  3  6  0  2  5    0.0
3  6  5  0  1  4  2    0.0
0  6  1  4  5  3  2    0.0
1  3  4  2  0  6  5    0.0
2  4  1  5  3  6  0    0.0
3  0  6  1  4  2  5    0.0



14	0.0      1	0.0
3  5  6  0  1  4  2    0.0
2  3  6  1  5  0  4    0.0
4  2  3  5  6  0  1    0.0
2  4  1  0  6  5  3    0.0
6  0  1  4  2  3  5    0.0
1  4  5  6  0  2  3    0.0
1  4  3  6  0  2  5    0.0
2  3  5  6  1  4  0    0.0
1  4  2  3  5  6  0    0.0
1  3  4  2  0  6  5    0.0
3  5  6  1  2  4  0    0.0
3  0  6  1  4  2  5    0.0



15	0.0      1	0.0
3  5  6  0  1  4  2    0.0
2  6  3  1  5  0  4    0.0
4  6  3  5  2  0  1    0.0
2  3  6  0  5  1  4    0.0
0  6  4  1  2  3  5    0.0
5  6  0  1  4  2  3    0.0
1  4  3  6  0  2  5    0.0
2  3  5  6  1  4  0    0.0
1  3  4  2  5  6  0    0.0
1  3  4  2  5  6  0    0.0
3  5  6  1  2  4  0    0.0
3  0  6  1  4  2  5    0.0



16	0.0      1	0.0
4  2  3  0  1  5  6    0.0
4  2  3  5  6  0  1    0.0
1  4  3  5  2  6  0    0.0
4  2  0  6  5  3  1    0.0
4  0  6  1  2  3  5    0.0
5  6  0  1  4  2  3    0.0
0  1  4  2  3  5  6    0.0
2  3  5  6  1  4  0    0.0
1  3  2  0  4  5  6    0.0
4  2  3  6  5  0  1    0.0
2  4  6  1  3  5  0    0.0
3  0  6  1  4  2  5    0.0



17	0.0      1	0.0
4  2  3  0  1  5  6    0.0
5  2  4  3  6  0  1    0.0
1  4  3  5  2  6  0    0.0
4  2  0  6  5  3  1    0.0
4  0  6  1  2  3  5    0.0
5  6  0  1  4  2  3    0.0
0  1  4  2  3  5  6    0.0
2  3  5  6  4  1  0    0.0
1  3  2  5  0  4  6    0.0
6  4  2  3  1  0  5    0.0
2  4  1  6  3  5  0    0.0
3  0  6  1  4  2  5    0.0



18	0.0      1	0.0
4  2  3  0  1  5  6    0.0
5  2  4  3  6  0  1    0.0
5  6  4  2  3  0  1    0.0
4  2  0  6  5  3  1    0.0
4  0  6  1  2  3  5    0.0
5  6  0  1  4  2  3    0.0
0  1  4  5  6  2  3    0.0
2  3  5  6  4  1  0    0.0
2  3  6  5  0  4  1    0.0
6  2  3  0  1  5  4    0.0
6  4  2  0  3  5  1    0.0
0  5  3  1  6  4  2    0.0



19	0.015873015873015872      19	0.015873015873015872
0  1  3  5  6  4  2    0.015873015873015872
5  6  4  2  3  0  1    0.0
1  5  6  2  4  3  0    0.0
4  2  0  6  5  3  1    0.0
4  0  6  1  2  3  5    0.0
5  6  0  1  4  2  3    0.0
0  1  4  2  5  6  3    0.0
2  3  5  6  4  1  0    0.0
2  3  6  5  0  4  1    0.0
6  2  3  0  1  5  4    0.0
6  4  2  0  3  5  1    0.0
0  5  3  1  6  4  2    0.0



20	0.015873015873015872      19	0.015873015873015872
5  6  4  2  0  1  3    0.015873015873015872
6  4  2  0  1  3  5    0.015873015873015872
2  0  1  3  5  6  4    0.015873015873015872
5  6  4  2  3  0  1    0.0
4  2  3  5  6  0  1    0.0
4  0  6  1  2  3  5    0.0
5  6  0  1  4  2  3    0.0
0  1  4  2  5  6  3    0.0
2  3  6  5  0  4  1    0.0
4  2  3  0  1  5  6    0.0
6  4  2  0  3  5  1    0.0
0  5  6  3  1  4  2    0.0



21	0.015873015873015872      19	0.015873015873015872
6  4  2  0  1  3  5    0.015873015873015872
5  6  4  2  0  1  3    0.015873015873015872
0  1  3  5  6  4  2    0.015873015873015872
5  6  4  2  0  1  3    0.015873015873015872
5  6  4  2  0  1  3    0.015873015873015872
5  6  2  0  4  1  3    0.0
1  6  4  3  5  2  0    0.0
4  0  6  1  2  3  5    0.0
2  1  4  0  3  5  6    0.0
1  3  6  5  4  0  2    0.0
3  5  0  1  6  4  2    0.0
0  5  6  4  3  1  2    0.0



22	0.015873015873015872      19	0.015873015873015872
6  4  2  0  1  3  5    0.015873015873015872
5  6  4  2  0  1  3    0.015873015873015872
5  6  4  2  0  1  3    0.015873015873015872
5  6  4  2  0  1  3    0.015873015873015872
1  3  5  6  4  2  0    0.015873015873015872
5  3  1  0  6  4  2    0.0
6  4  2  3  5  0  1    0.0
3  0  6  1  5  4  2    0.0
2  1  4  0  3  5  6    0.0
1  3  6  5  4  0  2    0.0
3  5  0  1  6  4  2    0.0
1  3  6  4  5  2  0    0.0



23	0.015873015873015872      19	0.015873015873015872
1  3  5  6  4  2  0    0.015873015873015872
6  4  2  0  1  3  5    0.015873015873015872
5  6  4  2  0  1  3    0.015873015873015872
6  4  2  0  1  3  5    0.015873015873015872
1  3  4  2  5  6  0    0.0
5  4  6  2  1  3  0    0.0
5  3  2  0  1  6  4    0.0
6  4  2  3  5  0  1    0.0
3  0  5  1  6  4  2    0.0
2  0  4  1  3  5  6    0.0
1  3  6  5  0  4  2    0.0
0  3  6  1  5  4  2    0.0



24	0.015873015873015872      19	0.015873015873015872
6  4  2  0  1  3  5    0.015873015873015872
5  6  4  2  0  1  3    0.015873015873015872
2  0  1  3  5  6  4    0.015873015873015872
0  1  3  5  6  4  2    0.015873015873015872
2  6  4  5  1  0  3    0.0
2  0  3  5  1  6  4    0.0
1  3  4  2  5  6  0    0.0
0  5  6  2  1  3  4    0.0
5  3  2  0  1  6  4    0.0
6  4  2  3  5  0  1    0.0
3  0  5  1  6  4  2    0.0
0  3  6  1  5  4  2    0.0



25	0.015873015873015872      19	0.015873015873015872
6  4  2  0  1  3  5    0.015873015873015872
5  6  4  2  0  1  3    0.015873015873015872
0  1  3  5  6  4  2    0.015873015873015872
2  0  1  3  5  6  4    0.015873015873015872
0  1  3  6  5  4  2    0.0
3  6  4  2  5  0  1    0.0
1  3  4  2  5  6  0    0.0
4  5  6  2  1  3  0    0.0
2  3  5  0  1  6  4    0.0
6  5  4  3  2  0  1    0.0
3  4  2  0  1  5  6    0.0
5  3  6  1  4  2  0    0.0



26	0.015873015873015872      19	0.015873015873015872
2  0  1  3  5  6  4    0.015873015873015872
6  4  2  0  1  3  5    0.015873015873015872
5  6  4  2  0  1  3    0.015873015873015872
2  1  0  3  5  6  4    0.0
0  1  3  6  5  4  2    0.0
3  6  4  2  5  0  1    0.0
1  3  4  2  5  6  0    0.0
4  5  6  2  1  3  0    0.0
2  3  5  1  0  6  4    0.0
0  5  4  1  3  6  2    0.0
6  4  5  2  1  0  3    0.0
3  5  6  1  4  2  0    0.0



27	0.015873015873015872      19	0.015873015873015872
2  0  1  3  5  6  4    0.015873015873015872
1  3  5  6  4  2  0    0.015873015873015872
6  4  2  3  0  5  1    0.0
6  1  4  2  0  3  5    0.0
2  1  0  3  5  6  4    0.0
4  2  3  6  5  0  1    0.0
4  3  6  2  5  0  1    0.0
4  5  6  2  1  3  0    0.0
2  3  5  1  0  6  4    0.0
0  2  1  3  5  6  4    0.0
6  4  5  2  1  0  3    0.0
5  4  6  1  2  0  3    0.0



28	0.015873015873015872      19	0.015873015873015872
1  3  5  6  4  2  0    0.015873015873015872
5  3  1  4  6  2  0    0.0
3  4  2  1  6  0  5    0.0
6  4  2  3  0  5  1    0.0
6  1  4  2  0  3  5    0.0
2  1  0  3  5  6  4    0.0
4  2  1  3  5  6  0    0.0
4  1  6  2  5  0  3    0.0
2  4  6  1  5  3  0    0.0
0  2  1  3  5  6  4    0.0
1  4  6  5  2  0  3    0.0
5  4  6  1  2  0  3    0.0



29	0.015873015873015872      19	0.015873015873015872
1  3  5  6  4  2  0    0.015873015873015872
6  4  2  0  1  3  5    0.015873015873015872
5  3  1  4  6  2  0    0.0
1  2  0  6  4  3  5    0.0
6  1  4  2  0  3  5    0.0
2  1  0  6  4  3  5    0.0
4  2  1  3  5  6  0    0.0
1  2  3  6  5  0  4    0.0
2  4  6  1  5  3  0    0.0
0  2  1  3  5  6  4    0.0
0  1  6  5  2  3  4    0.0
4  1  2  6  5  0  3    0.0



30	0.015625      19	0.015873015873015872
1  3  5  4  2  6  0    0.015625
0  2  1  3  4  5  6    0.014705882352941176
0  1  3  4  5  6  2    0.014492753623188406
6  2  0  1  4  3  5    0.0
5  1  4  3  6  2  0    0.0
1  4  2  6  0  3  5    0.0
6  1  4  2  0  3  5    0.0
4  0  2  6  1  3  5    0.0
3  6  5  1  4  0  2    0.0
2  4  6  1  5  3  0    0.0
0  1  6  5  2  3  4    0.0
4  1  2  6  5  0  3    0.0



31	0.014705882352941176      19	0.015873015873015872
0  2  1  3  4  5  6    0.014705882352941176
0  1  3  4  5  6  2    0.014492753623188406
0  3  5  4  2  6  1    0.0
6  0  1  3  4  5  2    0.0
5  1  3  4  6  2  0    0.0
1  4  2  6  0  3  5    0.0
6  4  0  2  1  3  5    0.0
3  0  2  6  5  1  4    0.0
3  6  5  1  4  0  2    0.0
2  4  6  1  0  3  5    0.0
0  1  6  5  2  3  4    0.0
4  2  1  6  5  0  3    0.0



32	0.014705882352941176      19	0.015873015873015872
0  2  1  3  4  5  6    0.014705882352941176
5  6  0  2  1  3  4    0.014705882352941176
0  1  3  4  5  6  2    0.014492753623188406
5  6  0  4  2  1  3    0.0
6  0  1  3  4  5  2    0.0
5  4  1  3  6  2  0    0.0
1  4  2  6  0  3  5    0.0
3  0  2  6  5  1  4    0.0
3  6  5  1  4  0  2    0.0
2  4  1  3  5  6  0    0.0
0  1  6  5  2  3  4    0.0
4  0  2  6  1  5  3    0.0



33	0.015384615384615385      19	0.015873015873015872
0  2  1  3  5  4  6    0.015384615384615385
5  1  0  3  6  2  4    0.0
0  1  3  2  4  6  5    0.0
5  6  2  0  4  1  3    0.0
3  0  1  4  6  5  2    0.0
2  5  1  3  4  6  0    0.0
1  4  2  6  0  3  5    0.0
6  0  2  1  5  3  4    0.0
3  6  5  1  4  0  2    0.0
2  4  1  3  5  6  0    0.0
0  1  6  5  2  3  4    0.0
4  0  2  6  1  5  3    0.0



34	0.015384615384615385      19	0.015873015873015872
3  5  4  6  0  2  1    0.015384615384615385
5  1  0  3  6  2  4    0.0
0  1  3  2  4  6  5    0.0
6  1  2  0  4  3  5    0.0
3  1  0  4  6  5  2    0.0
0  5  3  4  6  1  2    0.0
1  4  6  2  0  3  5    0.0
6  0  2  1  5  3  4    0.0
6  0  4  2  1  5  3    0.0
4  6  0  2  5  1  3    0.0
0  1  6  5  2  3  4    0.0
4  0  2  6  1  5  3    0.0



35	0.015384615384615385      19	0.015873015873015872
0  2  1  3  5  4  6    0.015384615384615385
1  3  5  4  6  2  0    0.015151515151515152
2  1  3  4  5  6  0    0.014705882352941176
1  3  4  6  0  2  5    0.0
6  4  1  3  0  2  5    0.0
5  0  4  6  3  1  2    0.0
6  5  3  0  2  1  4    0.0
1  0  2  4  6  3  5    0.0
6  0  2  1  5  3  4    0.0
2  3  5  4  1  6  0    0.0
0  1  6  5  2  3  4    0.0
4  0  2  6  1  5  3    0.0



36	0.015384615384615385      19	0.015873015873015872
4  6  0  2  1  3  5    0.015384615384615385
6  0  2  3  5  4  1    0.0
6  0  1  3  5  2  4    0.0
4  6  0  2  5  1  3    0.0
2  3  4  6  0  1  5    0.0
6  4  1  3  0  2  5    0.0
5  0  4  6  3  1  2    0.0
6  5  3  0  2  1  4    0.0
3  0  2  5  4  6  1    0.0
6  0  2  1  5  3  4    0.0
2  3  5  4  1  6  0    0.0
0  1  6  5  2  3  4    0.0



37	0.015384615384615385      19	0.015873015873015872
4  6  0  2  1  3  5    0.015384615384615385
2  1  0  3  5  4  6    0.0
6  0  1  5  3  2  4    0.0
1  6  0  2  3  5  4    0.0
5  3  4  6  0  1  2    0.0
6  4  1  3  0  2  5    0.0
5  0  4  6  3  1  2    0.0
3  5  2  6  0  1  4    0.0
1  2  0  3  5  4  6    0.0
3  4  2  1  5  6  0    0.0
3  2  5  4  1  6  0    0.0
1  3  6  5  2  4  0    0.0



38	0.015384615384615385      19	0.015873015873015872
1  3  5  4  6  0  2    0.015384615384615385
6  0  4  2  1  3  5    0.0
2  1  0  3  5  4  6    0.0
5  4  0  2  3  6  1    0.0
5  3  4  6  0  1  2    0.0
6  4  1  3  0  2  5    0.0
2  3  5  4  0  1  6    0.0
3  5  2  6  0  1  4    0.0
1  2  0  3  5  4  6    0.0
3  4  2  1  5  6  0    0.0
3  2  5  1  4  6  0    0.0
1  6  4  5  3  0  2    0.0



39	0.015384615384615385      19	0.015873015873015872
1  3  5  4  6  0  2    0.015384615384615385
1  3  5  4  6  0  2    0.015384615384615385
3  5  4  6  0  2  1    0.015384615384615385
0  2  1  3  5  4  6    0.015384615384615385
6  0  2  1  3  5  4    0.015384615384615385
6  0  4  2  1  3  5    0.0
2  1  6  3  5  4  0    0.0
4  6  1  5  0  3  2    0.0
5  3  4  6  0  1  2    0.0
1  3  4  0  6  2  5    0.0
2  3  5  4  0  1  6    0.0
3  5  2  6  0  1  4    0.0



40	0.015384615384615385      19	0.015873015873015872
1  3  5  4  6  0  2    0.015384615384615385
3  5  4  6  0  2  1    0.015384615384615385
6  0  2  1  3  5  4    0.015384615384615385
3  1  5  4  6  0  2    0.0
0  2  1  5  3  4  6    0.0
6  0  4  1  2  3  5    0.0
5  1  3  2  6  4  0    0.0
4  1  0  3  6  5  2    0.0
5  0  3  4  6  2  1    0.0
1  3  4  0  6  2  5    0.0
1  3  2  5  0  4  6    0.0
3  2  5  6  0  1  4    0.0



41	0.015384615384615385      19	0.015873015873015872
3  5  4  6  0  2  1    0.015384615384615385
0  2  1  3  5  4  6    0.015384615384615385
1  6  4  3  5  0  2    0.0
5  0  2  1  3  4  6    0.0
0  2  1  5  3  4  6    0.0
6  0  4  1  2  3  5    0.0
5  1  4  6  0  2  3    0.0
4  1  0  3  6  5  2    0.0
5  0  3  4  6  2  1    0.0
0  2  1  3  5  6  4    0.0
1  3  2  0  5  4  6    0.0
3  2  5  6  0  1  4    0.0



42	0.0      19	0.015873015873015872
0  4  5  1  2  3  6    0.0
0  1  5  3  2  4  6    0.0
1  3  6  4  5  0  2    0.0
4  0  6  2  1  3  5    0.0
0  2  1  5  3  4  6    0.0
6  0  4  1  2  3  5    0.0
5  1  4  6  0  2  3    0.0
4  1  0  6  2  3  5    0.0
2  1  3  4  6  5  0    0.0
4  2  1  3  5  6  0    0.0
1  3  2  0  5  4  6    0.0
0  1  2  6  5  3  4    0.0



43	0.0      19	0.015873015873015872
0  4  1  2  5  3  6    0.0
0  1  5  3  2  4  6    0.0
1  3  6  4  5  0  2    0.0
3  6  0  4  1  5  2    0.0
0  1  3  2  5  6  4    0.0
6  0  4  1  2  3  5    0.0
1  5  4  6  0  2  3    0.0
5  1  2  3  6  0  4    0.0
2  1  3  6  4  5  0    0.0
4  2  1  3  5  6  0    0.0
3  6  0  1  5  4  2    0.0
3  0  2  6  5  4  1    0.0



44	0.0      19	0.015873015873015872
0  4  1  2  3  5  6    0.0
2  1  5  3  6  0  4    0.0
1  3  6  4  5  0  2    0.0
1  2  5  3  6  0  4    0.0
0  3  1  2  5  6  4    0.0
0  6  1  2  5  3  4    0.0
1  5  4  6  0  2  3    0.0
5  1  2  3  6  0  4    0.0
2  1  3  6  4  5  0    0.0
4  2  1  3  5  6  0    0.0
3  4  1  2  5  6  0    0.0
0  1  2  6  5  4  3    0.0



45	0.0      19	0.015873015873015872
0  4  1  2  3  5  6    0.0
5  0  4  3  6  1  2    0.0
1  3  6  4  5  0  2    0.0
2  3  5  6  0  4  1    0.0
0  3  1  2  5  6  4    0.0
2  5  1  6  0  3  4    0.0
5  1  4  6  0  2  3    0.0
5  1  2  3  6  0  4    0.0
2  1  3  6  4  5  0    0.0
0  6  1  3  5  2  4    0.0
2  4  5  3  6  1  0    0.0
2  1  3  5  6  0  4    0.0



46	0.0      19	0.015873015873015872
5  6  0  4  3  1  2    0.0
5  0  4  3  6  1  2    0.0
1  3  6  4  5  0  2    0.0
2  3  5  6  0  4  1    0.0
0  5  6  2  3  1  4    0.0
2  5  1  6  0  3  4    0.0
5  1  4  6  0  2  3    0.0
5  1  2  3  6  0  4    0.0
2  1  3  6  4  5  0    0.0
0  6  1  5  3  2  4    0.0
0  4  2  3  6  1  5    0.0
6  1  3  5  0  4  2    0.0



47	0.0      19	0.015873015873015872
2  5  6  0  4  3  1    0.0
2  4  3  6  1  5  0    0.0
3  1  6  5  2  0  4    0.0
2  3  5  6  0  4  1    0.0
0  5  6  2  3  1  4    0.0
2  5  1  6  0  3  4    0.0
5  1  4  6  0  2  3    0.0
5  1  0  3  2  6  4    0.0
3  1  2  5  6  0  4    0.0
2  5  6  0  4  3  1    0.0
1  5  2  3  6  0  4    0.0
6  1  3  5  0  4  2    0.0



48	0.0      19	0.015873015873015872
1  2  5  0  4  3  6    0.0
2  0  4  6  1  5  3    0.0
3  1  6  5  2  0  4    0.0
1  2  5  6  0  4  3    0.0
0  5  6  2  3  1  4    0.0
2  5  1  6  0  3  4    0.0
3  1  4  6  2  5  0    0.0
5  1  0  3  2  6  4    0.0
3  1  2  5  6  0  4    0.0
2  5  6  0  4  3  1    0.0
1  5  2  3  6  0  4    0.0
1  6  3  5  0  4  2    0.0



49	0.0      19	0.015873015873015872
1  2  5  0  4  3  6    0.0
2  0  4  6  1  5  3    0.0
3  6  1  5  2  0  4    0.0
1  2  5  6  0  4  3    0.0
0  5  6  2  3  1  4    0.0
2  5  1  6  0  3  4    0.0
0  6  1  2  5  4  3    0.0
4  3  0  1  6  2  5    0.0
0  1  2  4  3  6  5    0.0
2  5  6  0  4  3  1    0.0
1  5  2  3  6  0  4    0.0
1  6  3  5  0  4  2    0.0



50	0.0      19	0.015873015873015872
1  2  5  0  3  4  6    0.0
2  0  4  6  1  5  3    0.0
3  5  6  1  2  0  4    0.0
3  6  1  2  0  5  4    0.0
6  1  5  2  3  0  4    0.0
2  5  1  6  0  3  4    0.0
3  6  1  2  5  0  4    0.0
4  3  0  1  6  2  5    0.0
0  1  2  4  3  6  5    0.0
2  5  6  0  4  3  1    0.0
0  4  2  3  6  1  5    0.0
6  1  5  2  0  4  3    0.0



51	0.0      19	0.015873015873015872
3  4  6  1  2  5  0    0.0
5  0  3  4  6  1  2    0.0
3  5  6  1  2  0  4    0.0
3  6  1  5  0  2  4    0.0
6  1  5  0  3  4  2    0.0
0  5  1  3  4  6  2    0.0
4  6  1  2  5  0  3    0.0
4  2  3  0  1  6  5    0.0
4  3  0  2  1  6  5    0.0
1  2  6  0  4  5  3    0.0
0  4  2  3  6  1  5    0.0
6  1  5  2  3  4  0    0.0



52	0.0      19	0.015873015873015872
3  4  6  1  2  5  0    0.0
5  0  3  4  6  1  2    0.0
3  5  6  1  2  0  4    0.0
5  0  3  4  6  1  2    0.0
6  1  5  0  3  4  2    0.0
2  5  1  0  3  4  6    0.0
4  6  1  2  5  0  3    0.0
1  2  3  5  0  4  6    0.0
4  3  0  2  6  1  5    0.0
5  0  3  4  6  1  2    0.0
0  4  2  1  5  3  6    0.0
1  2  5  0  3  4  6    0.0



53	0.0      19	0.015873015873015872
3  4  6  2  1  5  0    0.0
5  0  3  4  6  1  2    0.0
3  5  6  1  2  0  4    0.0
5  0  6  1  2  3  4    0.0
6  1  5  0  3  4  2    0.0
2  5  3  4  1  0  6    0.0
5  6  1  2  0  3  4    0.0
2  1  3  5  0  4  6    0.0
4  3  2  0  6  1  5    0.0
5  0  3  4  2  6  1    0.0
0  4  2  1  5  3  6    0.0
3  2  5  0  4  6  1    0.0



54	0.0      19	0.015873015873015872
3  4  1  2  5  6  0    0.0
4  5  2  0  6  1  3    0.0
3  6  4  2  1  0  5    0.0
5  0  6  1  2  3  4    0.0
3  1  5  0  4  6  2    0.0
2  5  3  1  0  4  6    0.0
5  0  3  1  6  2  4    0.0
2  1  3  5  0  4  6    0.0
4  3  2  0  6  1  5    0.0
0  1  3  4  2  6  5    0.0
0  3  2  1  4  5  6    0.0
3  2  5  0  1  4  6    0.0



55	0.0      19	0.015873015873015872
4  1  5  2  6  0  3    0.0
3  4  1  0  6  2  5    0.0
3  6  1  4  2  0  5    0.0
0  3  6  1  2  4  5    0.0
3  1  5  0  4  6  2    0.0
2  5  1  6  0  3  4    0.0
5  0  3  1  6  2  4    0.0
2  5  3  6  0  4  1    0.0
4  3  2  0  6  1  5    0.0
2  1  3  0  6  5  4    0.0
0  3  2  1  4  5  6    0.0
0  3  2  5  1  4  6    0.0



56	0.0      19	0.015873015873015872
3  4  1  5  6  0  2    0.0
3  4  1  0  6  2  5    0.0
3  6  1  2  4  0  5    0.0
5  3  2  6  0  4  1    0.0
3  1  5  0  4  6  2    0.0
2  5  1  3  0  6  4    0.0
6  3  1  0  4  5  2    0.0
2  5  3  6  0  4  1    0.0
4  3  2  0  6  1  5    0.0
3  4  0  6  1  5  2    0.0
0  3  5  1  4  2  6    0.0
0  3  2  5  1  4  6    0.0



57	0.0      19	0.015873015873015872
3  4  1  5  6  0  2    0.0
3  4  1  0  6  2  5    0.0
3  6  1  2  4  0  5    0.0
0  2  3  1  5  4  6    0.0
2  1  5  4  0  6  3    0.0
2  5  1  6  0  3  4    0.0
6  2  3  0  4  1  5    0.0
0  2  3  4  1  5  6    0.0
4  1  5  6  0  2  3    0.0
3  6  0  4  1  5  2    0.0
6  3  5  0  2  4  1    0.0
0  3  2  5  1  4  6    0.0



58	0.014492753623188406      19	0.015873015873015872
2  3  4  5  6  0  1    0.014492753623188406
3  4  1  0  6  2  5    0.0
0  2  3  1  4  5  6    0.0
0  2  3  1  5  4  6    0.0
6  0  2  3  4  1  5    0.0
2  5  1  0  3  6  4    0.0
0  2  3  4  1  5  6    0.0
0  2  3  4  1  5  6    0.0
4  1  5  6  0  2  3    0.0
3  6  0  4  1  5  2    0.0
5  1  3  6  0  2  4    0.0
2  1  0  5  3  4  6    0.0



59	0.014492753623188406      19	0.015873015873015872
2  3  4  5  6  0  1    0.014492753623188406
2  3  4  5  6  0  1    0.014492753623188406
1  0  2  4  6  3  5    0.0
0  3  4  5  6  1  2    0.0
0  2  3  1  5  4  6    0.0
6  0  5  2  1  3  4    0.0
2  5  1  0  3  6  4    0.0
0  2  3  4  1  5  6    0.0
0  2  3  4  1  5  6    0.0
2  3  0  4  1  5  6    0.0
5  3  6  0  1  2  4    0.0
2  1  0  5  3  4  6    0.0



60	0.014492753623188406      19	0.015873015873015872
2  3  4  5  6  0  1    0.014492753623188406
2  3  4  5  6  0  1    0.014492753623188406
1  3  4  5  6  2  0    0.014492753623188406
0  1  2  3  6  4  5    0.0
0  3  4  5  6  1  2    0.0
0  2  3  1  5  4  6    0.0
6  0  5  1  2  3  4    0.0
2  5  1  0  3  6  4    0.0
6  0  1  4  2  3  5    0.0
0  2  3  4  1  5  6    0.0
2  3  0  4  1  5  6    0.0
6  0  1  5  2  3  4    0.0



61	0.014492753623188406      19	0.015873015873015872
2  3  4  5  6  0  1    0.014492753623188406
5  3  4  6  0  1  2    0.0
0  1  2  3  6  4  5    0.0
0  1  2  3  6  4  5    0.0
5  6  4  0  1  2  3    0.0
0  2  3  1  5  4  6    0.0
4  5  6  2  1  3  0    0.0
2  5  1  0  6  3  4    0.0
6  1  0  5  2  3  4    0.0
0  3  4  6  5  1  2    0.0
2  3  0  4  1  5  6    0.0
1  4  5  6  2  3  0    0.0



62	0.014492753623188406      19	0.015873015873015872
2  3  4  5  6  0  1    0.014492753623188406
5  3  4  6  0  1  2    0.0
0  1  2  3  6  4  5    0.0
5  1  0  6  2  3  4    0.0
5  6  4  0  1  2  3    0.0
0  2  3  1  5  4  6    0.0
0  4  1  3  2  5  6    0.0
2  5  1  0  6  3  4    0.0
4  1  5  6  0  2  3    0.0
0  1  2  6  5  3  4    0.0
2  0  3  4  1  5  6    0.0
1  4  5  6  2  3  0    0.0



63	0.015625      19	0.015873015873015872
3  1  0  6  2  4  5    0.015625
4  3  5  6  0  1  2    0.015384615384615385
5  6  0  1  2  3  4    0.014492753623188406
0  1  2  3  6  4  5    0.0
5  6  4  0  1  2  3    0.0
0  2  3  1  5  4  6    0.0
0  4  1  3  5  2  6    0.0
2  3  6  4  5  0  1    0.0
6  0  5  1  2  3  4    0.0
5  2  4  1  6  3  0    0.0
2  0  3  4  1  5  6    0.0
1  4  5  6  2  3  0    0.0



64	0.015873015873015872      19	0.015873015873015872
0  1  3  5  6  4  2    0.015873015873015872
0  6  2  4  5  3  1    0.015625
0  2  6  4  5  3  1    0.015151515151515152
5  6  3  1  2  0  4    0.0
0  3  6  2  4  5  1    0.0
5  6  4  0  1  2  3    0.0
0  5  1  4  3  2  6    0.0
2  3  6  4  5  1  0    0.0
4  0  5  1  2  3  6    0.0
5  2  4  1  6  3  0    0.0
2  0  3  4  1  5  6    0.0
1  4  5  6  2  3  0    0.0



65	0.015873015873015872      19	0.015873015873015872
3  5  6  4  2  0  1    0.015873015873015872
0  6  2  4  5  3  1    0.015625
0  2  5  3  6  4  1    0.0
2  0  6  4  1  3  5    0.0
5  6  3  1  2  0  4    0.0
0  3  6  2  4  5  1    0.0
5  6  4  0  1  2  3    0.0
0  5  1  4  3  2  6    0.0
2  3  6  4  5  1  0    0.0
4  0  5  1  2  3  6    0.0
4  2  5  6  0  1  3    0.0
1  4  5  6  2  3  0    0.0



66	0.015873015873015872      19	0.015873015873015872
0  2  4  6  5  3  1    0.015873015873015872
6  4  2  0  1  3  5    0.015873015873015872
5  2  6  4  3  0  1    0.0
0  2  5  3  4  6  1    0.0
2  0  4  6  1  3  5    0.0
0  3  6  2  4  5  1    0.0
5  6  1  4  2  0  3    0.0
2  1  0  4  3  5  6    0.0
3  5  6  4  2  1  0    0.0
4  0  5  1  2  3  6    0.0
4  2  5  6  0  1  3    0.0
1  4  5  2  0  3  6    0.0



67	0.0      19	0.015873015873015872
1  0  2  6  5  3  4    0.0
0  2  4  6  1  3  5    0.0
5  2  6  4  3  0  1    0.0
0  2  5  3  4  6  1    0.0
2  0  4  6  1  3  5    0.0
5  3  6  2  1  0  4    0.0
5  6  1  4  3  0  2    0.0
2  1  6  5  3  4  0    0.0
3  2  5  4  6  1  0    0.0
4  0  5  1  2  3  6    0.0
3  1  2  6  0  4  5    0.0
4  1  5  2  0  3  6    0.0



68	0.0      19	0.015873015873015872
1  0  2  6  5  3  4    0.0
0  2  4  6  1  3  5    0.0
4  6  3  5  1  0  2    0.0
0  3  2  5  4  6  1    0.0
2  0  4  6  1  3  5    0.0
5  3  6  2  1  0  4    0.0
3  4  5  0  6  1  2    0.0
4  1  0  5  3  2  6    0.0
4  2  5  3  6  1  0    0.0
3  4  1  2  0  6  5    0.0
3  1  2  6  0  4  5    0.0
4  1  5  2  0  3  6    0.0



69	0.0      19	0.015873015873015872
1  0  2  6  5  3  4    0.0
0  2  4  6  1  3  5    0.0
3  0  4  1  2  6  5    0.0
0  3  2  5  4  6  1    0.0
2  0  6  5  3  4  1    0.0
5  3  6  4  1  0  2    0.0
3  0  2  6  5  4  1    0.0
4  1  0  5  3  2  6    0.0
4  6  5  2  3  1  0    0.0
3  4  1  2  0  6  5    0.0
5  1  2  6  3  4  0    0.0
4  1  5  2  0  3  6    0.0



70	0.0      19	0.015873015873015872
1  0  2  6  5  3  4    0.0
0  2  4  6  1  3  5    0.0
3  0  4  2  1  6  5    0.0
0  3  2  5  4  1  6    0.0
4  1  6  5  3  0  2    0.0
5  3  1  4  0  2  6    0.0
3  0  2  6  5  4  1    0.0
4  0  1  5  3  2  6    0.0
4  6  5  2  3  1  0    0.0
3  4  1  2  0  6  5    0.0
5  2  1  6  3  4  0    0.0
3  2  0  1  4  6  5    0.0



71	0.014492753623188406      19	0.015873015873015872
1  0  2  6  5  4  3    0.014492753623188406
1  0  2  6  5  3  4    0.0
4  1  6  2  3  0  5    0.0
3  0  4  2  1  6  5    0.0
0  2  5  4  3  1  6    0.0
4  1  6  5  3  0  2    0.0
0  4  5  3  1  2  6    0.0
3  5  4  2  1  0  6    0.0
4  6  5  2  3  1  0    0.0
5  3  1  2  4  0  6    0.0
5  2  1  6  3  4  0    0.0
3  2  0  1  4  6  5    0.0



72	0.014492753623188406      19	0.015873015873015872
5  4  3  1  0  2  6    0.014492753623188406
3  1  0  2  6  5  4    0.014492753623188406
5  6  4  3  1  0  2    0.0
1  0  2  6  5  3  4    0.0
4  1  6  2  3  0  5    0.0
3  0  4  2  1  6  5    0.0
0  4  5  3  1  2  6    0.0
4  1  0  3  6  5  2    0.0
3  1  2  4  5  0  6    0.0
4  6  5  2  3  1  0    0.0
5  3  1  2  4  0  6    0.0
3  2  0  1  4  6  5    0.0



73	0.015384615384615385      19	0.015873015873015872
0  1  2  4  3  5  6    0.015384615384615385
3  1  0  2  6  5  4    0.014492753623188406
5  4  3  1  0  2  6    0.014492753623188406
1  0  2  6  5  4  3    0.014492753623188406
0  2  6  5  4  3  1    0.014492753623188406
5  6  4  3  1  0  2    0.0
6  5  4  2  1  3  0    0.0
0  2  6  3  5  4  1    0.0
3  1  2  4  5  0  6    0.0
4  6  5  2  3  1  0    0.0
3  5  1  2  4  0  6    0.0
3  2  0  1  4  6  5    0.0



74	0.014705882352941176      19	0.015873015873015872
1  2  0  6  5  4  3    0.014705882352941176
2  4  1  3  5  6  0    0.0
5  0  1  2  6  4  3    0.0
5  4  3  6  0  1  2    0.0
5  6  0  1  4  2  3    0.0
5  6  3  1  4  0  2    0.0
6  5  4  2  1  3  0    0.0
0  1  6  3  5  4  2    0.0
3  1  2  4  5  0  6    0.0
3  5  4  2  6  1  0    0.0
2  4  0  5  3  6  1    0.0
3  1  2  4  5  6  0    0.0



75	0.015873015873015872      19	0.015873015873015872
5  6  4  2  0  1  3    0.015873015873015872
1  2  0  6  5  4  3    0.014705882352941176
6  4  1  5  3  2  0    0.0
5  4  3  6  1  2  0    0.0
5  0  6  1  4  2  3    0.0
2  6  3  1  4  0  5    0.0
2  0  6  5  1  3  4    0.0
0  1  6  3  5  4  2    0.0
0  6  1  5  4  3  2    0.0
3  5  4  2  6  1  0    0.0
2  4  0  5  3  1  6    0.0
1  3  4  2  5  6  0    0.0



76	0.015873015873015872      19	0.015873015873015872
5  6  4  2  0  1  3    0.015873015873015872
2  0  1  3  5  6  4    0.015873015873015872
2  4  1  0  3  5  6    0.0
5  4  3  1  6  2  0    0.0
5  6  0  1  4  2  3    0.0
2  6  3  1  4  0  5    0.0
2  0  6  5  1  3  4    0.0
0  6  1  3  5  4  2    0.0
6  2  0  5  4  3  1    0.0
5  2  4  6  3  1  0    0.0
1  4  0  5  3  6  2    0.0
1  4  2  3  5  6  0    0.0



77	0.015873015873015872      19	0.015873015873015872
2  0  1  3  5  6  4    0.015873015873015872
3  5  6  4  2  0  1    0.015873015873015872
1  3  4  2  0  5  6    0.0
3  6  4  2  0  5  1    0.0
5  6  0  1  4  2  3    0.0
4  1  6  3  5  0  2    0.0
2  0  6  5  1  3  4    0.0
0  6  1  3  5  4  2    0.0
1  2  0  5  3  6  4    0.0
5  2  4  0  1  3  6    0.0
1  4  5  3  0  6  2    0.0
1  6  2  3  5  4  0    0.0



78	0.015873015873015872      19	0.015873015873015872
2  0  1  3  5  6  4    0.015873015873015872
3  5  6  4  2  0  1    0.015873015873015872
2  5  6  4  0  1  3    0.0
1  3  4  2  0  5  6    0.0
3  6  4  2  0  5  1    0.0
5  6  0  1  4  2  3    0.0
4  2  1  3  5  0  6    0.0
2  0  6  5  1  3  4    0.0
1  2  0  5  3  6  4    0.0
5  0  1  3  6  4  2    0.0
1  4  5  3  0  6  2    0.0
1  6  2  3  5  4  0    0.0



79	0.015873015873015872      19	0.015873015873015872
2  0  1  3  5  6  4    0.015873015873015872
2  3  5  4  6  0  1    0.015151515151515152
6  3  4  5  2  0  1    0.0
2  6  5  4  0  1  3    0.0
6  1  4  2  0  3  5    0.0
3  6  4  2  0  5  1    0.0
5  6  0  1  4  2  3    0.0
3  5  1  6  4  2  0    0.0
2  0  6  5  1  3  4    0.0
5  0  1  3  6  4  2    0.0
6  4  2  3  0  1  5    0.0
1  6  2  3  5  4  0    0.0



80	0.015625      19	0.015873015873015872
6  0  1  3  5  4  2    0.015625
2  3  5  4  6  0  1    0.015151515151515152
5  6  1  3  4  2  0    0.0
6  3  4  5  2  0  1    0.0
2  6  5  4  0  1  3    0.0
3  6  4  2  0  5  1    0.0
5  6  1  3  4  2  0    0.0
6  1  5  3  4  2  0    0.0
2  0  6  5  1  3  4    0.0
5  0  1  3  6  4  2    0.0
6  4  2  3  0  1  5    0.0
1  6  2  3  5  4  0    0.0



81	0.015873015873015872      19	0.015873015873015872
5  6  4  2  0  1  3    0.015873015873015872
6  0  1  3  5  4  2    0.015625
2  3  5  4  6  0  1    0.015151515151515152
4  6  5  3  1  2  0    0.0
6  3  4  5  2  0  1    0.0
2  6  5  4  0  1  3    0.0
5  6  1  3  4  2  0    0.0
6  1  5  3  4  2  0    0.0
2  0  6  5  1  3  4    0.0
2  0  6  4  1  3  5    0.0
6  4  3  0  1  2  5    0.0
1  6  4  2  3  5  0    0.0



82	0.015625      19	0.015873015873015872
6  0  1  3  5  4  2    0.015625
2  3  5  4  6  0  1    0.015151515151515152
5  6  2  0  4  1  3    0.0
4  6  5  3  1  2  0    0.0
6  3  4  5  2  0  1    0.0
2  6  5  0  4  1  3    0.0
5  6  0  3  4  2  1    0.0
6  1  5  3  4  2  0    0.0
3  1  0  4  5  6  2    0.0
3  5  6  4  1  2  0    0.0
6  4  3  0  1  2  5    0.0
1  6  4  2  0  3  5    0.0



83	0.015151515151515152      19	0.015873015873015872
2  3  5  4  6  0  1    0.015151515151515152
4  2  1  3  5  6  0    0.0
5  6  2  0  4  1  3    0.0
6  0  1  3  5  2  4    0.0
6  3  1  5  4  2  0    0.0
2  6  5  0  4  1  3    0.0
5  6  0  3  4  2  1    0.0
6  1  5  3  4  2  0    0.0
3  1  5  4  2  6  0    0.0
6  5  3  4  1  2  0    0.0
1  4  3  5  2  6  0    0.0
1  4  2  0  6  3  5    0.0



84	0.015151515151515152      19	0.015873015873015872
2  3  5  4  6  0  1    0.015151515151515152
0  1  2  3  4  5  6    0.014492753623188406
4  1  3  2  5  6  0    0.0
5  6  2  0  1  4  3    0.0
4  6  1  0  2  3  5    0.0
6  3  1  5  2  4  0    0.0
6  4  0  1  2  3  5    0.0
6  3  4  5  1  2  0    0.0
3  5  1  4  2  6  0    0.0
6  5  3  4  1  2  0    0.0
1  3  0  2  6  5  4    0.0
1  4  2  0  6  3  5    0.0



85	0.015151515151515152      19	0.015873015873015872
2  3  5  4  6  0  1    0.015151515151515152
6  0  1  2  3  5  4    0.015151515151515152
6  1  2  3  0  5  4    0.0
4  1  3  2  5  6  0    0.0
5  3  4  6  0  1  2    0.0
4  6  1  0  2  3  5    0.0
6  3  1  5  2  4  0    0.0
6  4  0  1  2  3  5    0.0
6  3  4  5  1  2  0    0.0
3  5  1  4  2  6  0    0.0
6  5  3  4  1  2  0    0.0
1  2  5  4  6  3  0    0.0



86	0.0      19	0.015873015873015872
6  0  1  4  2  3  5    0.0
0  5  1  2  3  4  6    0.0
6  1  2  3  0  5  4    0.0
4  3  1  2  5  6  0    0.0
2  3  5  4  0  1  6    0.0
0  1  2  5  3  4  6    0.0
6  3  1  5  2  4  0    0.0
0  1  6  2  4  3  5    0.0
6  3  4  5  1  2  0    0.0
3  5  1  4  2  6  0    0.0
6  4  0  1  2  3  5    0.0
1  2  5  4  6  3  0    0.0



87	0.0      19	0.015873015873015872
6  0  1  4  2  3  5    0.0
0  2  3  5  1  4  6    0.0
6  1  4  2  0  5  3    0.0
3  5  6  0  1  4  2    0.0
2  5  3  4  0  1  6    0.0
0  1  2  5  3  4  6    0.0
4  3  1  2  5  6  0    0.0
0  1  6  2  4  3  5    0.0
6  0  5  4  1  2  3    0.0
3  6  5  0  2  1  4    0.0
6  4  0  1  2  3  5    0.0
1  2  5  4  6  3  0    0.0



88	0.0      19	0.015873015873015872
6  0  1  4  2  3  5    0.0
0  1  4  5  2  3  6    0.0
6  1  4  2  0  5  3    0.0
3  0  1  6  5  4  2    0.0
2  5  3  4  0  1  6    0.0
0  1  2  5  3  6  4    0.0
4  3  1  2  5  6  0    0.0
0  2  6  3  1  4  5    0.0
5  6  0  4  1  2  3    0.0
3  0  6  5  2  1  4    0.0
6  4  0  1  2  3  5    0.0
1  2  5  4  6  3  0    0.0



89	0.015384615384615385      19	0.015873015873015872
1  3  2  4  5  6  0    0.015384615384615385
6  0  1  4  2  3  5    0.0
0  1  4  5  2  3  6    0.0
3  5  0  6  2  4  1    0.0
2  0  1  6  5  3  4    0.0
5  6  0  1  4  2  3    0.0
0  1  4  2  3  5  6    0.0
4  3  1  2  6  5  0    0.0
0  2  6  3  1  4  5    0.0
5  6  0  4  1  2  3    0.0
3  0  1  4  2  5  6    0.0
0  1  4  2  3  5  6    0.0



90	0.015384615384615385      19	0.015873015873015872
1  3  2  4  5  6  0    0.015384615384615385
5  0  1  4  2  3  6    0.0
0  4  5  6  1  3  2    0.0
3  5  0  6  2  4  1    0.0
0  1  2  4  5  3  6    0.0
5  6  0  1  4  2  3    0.0
2  5  4  1  6  0  3    0.0
4  3  1  2  6  5  0    0.0
0  2  6  3  1  4  5    0.0
5  6  0  4  1  2  3    0.0
3  0  1  4  2  5  6    0.0
0  1  4  5  2  3  6    0.0

